p cnf 405 1375
c p weight 162 -1 0
c p weight -162 1 0
c p weight 164 6.12323399573676603586882014729198302312846062338790031898128063403419218957424163818359375E-17 0
c p weight -164 1 0
c p weight 165 1 0
c p weight -165 1 0
c p weight 166 -1 0
c p weight -166 1 0
c p weight 168 -1 0
c p weight -168 1 0
c p weight 171 -1 0
c p weight -171 1 0
c p weight 174 -1 0
c p weight -174 1 0
c p weight 177 -1 0
c p weight -177 1 0
c p weight 180 -1 0
c p weight -180 1 0
c p weight 183 -1 0
c p weight -183 1 0
c p weight 186 -1 0
c p weight -186 1 0
c p weight 189 -1 0
c p weight -189 1 0
c p weight 192 -1 0
c p weight -192 1 0
c p weight 195 -1 0
c p weight -195 1 0
c p weight 198 -1 0
c p weight -198 1 0
c p weight 201 -1 0
c p weight -201 1 0
c p weight 204 -1 0
c p weight -204 1 0
c p weight 207 -1 0
c p weight -207 1 0
c p weight 210 -1 0
c p weight -210 1 0
c p weight 213 -1 0
c p weight -213 1 0
c p weight 216 -1 0
c p weight -216 1 0
c p weight 219 -1 0
c p weight -219 1 0
c p weight 222 -1 0
c p weight -222 1 0
c p weight 225 -1 0
c p weight -225 1 0
c p weight 228 -1 0
c p weight -228 1 0
c p weight 231 -1 0
c p weight -231 1 0
c p weight 234 -1 0
c p weight -234 1 0
c p weight 237 -1 0
c p weight -237 1 0
c p weight 240 -1 0
c p weight -240 1 0
c p weight 243 -1 0
c p weight -243 1 0
c p weight 246 -1 0
c p weight -246 1 0
c p weight 249 -1 0
c p weight -249 1 0
c p weight 252 -1 0
c p weight -252 1 0
c p weight 255 -1 0
c p weight -255 1 0
c p weight 258 -1 0
c p weight -258 1 0
c p weight 261 -1 0
c p weight -261 1 0
c p weight 264 -1 0
c p weight -264 1 0
c p weight 267 -1 0
c p weight -267 1 0
c p weight 270 -1 0
c p weight -270 1 0
c p weight 273 -1 0
c p weight -273 1 0
c p weight 276 -1 0
c p weight -276 1 0
c p weight 279 -1 0
c p weight -279 1 0
c p weight 282 -1 0
c p weight -282 1 0
c p weight 285 -1 0
c p weight -285 1 0
c p weight 288 -1 0
c p weight -288 1 0
c p weight 291 -1 0
c p weight -291 1 0
c p weight 294 -1 0
c p weight -294 1 0
c p weight 297 -1 0
c p weight -297 1 0
c p weight 300 -1 0
c p weight -300 1 0
c p weight 303 -1 0
c p weight -303 1 0
c p weight 306 -1 0
c p weight -306 1 0
c p weight 309 -1 0
c p weight -309 1 0
c p weight 312 -1 0
c p weight -312 1 0
c p weight 315 -1 0
c p weight -315 1 0
c p weight 318 -1 0
c p weight -318 1 0
c p weight 321 -1 0
c p weight -321 1 0
c p weight 324 -1 0
c p weight -324 1 0
c p weight 327 -1 0
c p weight -327 1 0
c p weight 330 -1 0
c p weight -330 1 0
c p weight 333 -1 0
c p weight -333 1 0
c p weight 336 -1 0
c p weight -336 1 0
c p weight 339 -1 0
c p weight -339 1 0
c p weight 342 -1 0
c p weight -342 1 0
c p weight 345 -1 0
c p weight -345 1 0
c p weight 348 -1 0
c p weight -348 1 0
c p weight 351 -1 0
c p weight -351 1 0
c p weight 354 -1 0
c p weight -354 1 0
c p weight 357 -1 0
c p weight -357 1 0
c p weight 360 -1 0
c p weight -360 1 0
c p weight 363 -1 0
c p weight -363 1 0
c p weight 366 -1 0
c p weight -366 1 0
c p weight 369 -1 0
c p weight -369 1 0
c p weight 372 -1 0
c p weight -372 1 0
c p weight 375 -1 0
c p weight -375 1 0
c p weight 378 -1 0
c p weight -378 1 0
c p weight 381 -1 0
c p weight -381 1 0
c p weight 384 -1 0
c p weight -384 1 0
c p weight 387 -1 0
c p weight -387 1 0
c p weight 390 -1 0
c p weight -390 1 0
c p weight 393 -1 0
c p weight -393 1 0
c p weight 396 -1 0
c p weight -396 1 0
c p weight 399 -1 0
c p weight -399 1 0
c p weight 402 -1 0
c p weight -402 1 0
c p weight 405 -1 0
c p weight -405 1 0
-159 0
-157 0
-155 0
-153 0
-151 0
-149 0
-147 0
-145 0
-143 0
-141 0
-139 0
-137 0
-135 0
-133 0
-131 0
-129 0
-127 0
-125 0
-123 0
-121 0
-119 0
-117 0
-115 0
-113 0
-111 0
-109 0
-107 0
-105 0
-103 0
-101 0
-99 0
-97 0
-95 0
-93 0
-91 0
-89 0
-87 0
-85 0
-83 0
-81 0
-79 0
-77 0
-75 0
-73 0
-71 0
-69 0
-67 0
-65 0
-63 0
-61 0
-59 0
-57 0
-55 0
-53 0
-51 0
-49 0
-47 0
-45 0
-43 0
-41 0
-39 0
-37 0
-35 0
-33 0
-31 0
-29 0
-27 0
-25 0
-23 0
-21 0
-19 0
-17 0
-15 0
-13 0
-11 0
-9 0
-7 0
-5 0
-3 0
-1 0
161 159 -160 0
161 -159 160 0
-161 159 160 0
-161 -159 -160 0
-162 159 0
-162 160 0
162 -159 -160 0
163 -159 161 0
-163 159 161 0
-164 161 0
163 -164 -159 0
-163 -164 159 0
163 164 159 -161 0
-163 164 -159 -161 0
-165 161 0
163 -165 159 0
-163 -165 -159 0
163 165 -159 -161 0
-163 165 159 -161 0
-166 163 0
-166 161 0
-166 -159 0
166 -163 159 -161 0
167 163 -161 0
167 -163 161 0
-167 163 161 0
-167 -163 -161 0
-168 163 0
-168 161 0
168 -163 -161 0
169 163 -157 0
169 -163 157 0
-169 163 157 0
-169 -163 -157 0
170 167 -158 0
170 -167 158 0
-170 167 158 0
-170 -167 -158 0
-171 163 0
-171 158 0
-171 157 -167 0
-171 -157 167 0
171 -163 157 167 -158 0
171 -163 -157 -167 -158 0
172 169 -155 0
172 -169 155 0
-172 169 155 0
-172 -169 -155 0
173 158 -156 0
173 -158 156 0
-173 158 156 0
-173 -158 -156 0
-174 169 0
-174 156 0
-174 155 -158 0
-174 -155 158 0
174 -169 155 158 -156 0
174 -169 -155 -158 -156 0
175 172 -153 0
175 -172 153 0
-175 172 153 0
-175 -172 -153 0
176 156 -154 0
176 -156 154 0
-176 156 154 0
-176 -156 -154 0
-177 172 0
-177 154 0
-177 153 -156 0
-177 -153 156 0
177 -172 153 156 -154 0
177 -172 -153 -156 -154 0
178 175 -151 0
178 -175 151 0
-178 175 151 0
-178 -175 -151 0
179 154 -152 0
179 -154 152 0
-179 154 152 0
-179 -154 -152 0
-180 175 0
-180 152 0
-180 151 -154 0
-180 -151 154 0
180 -175 151 154 -152 0
180 -175 -151 -154 -152 0
181 178 -149 0
181 -178 149 0
-181 178 149 0
-181 -178 -149 0
182 152 -150 0
182 -152 150 0
-182 152 150 0
-182 -152 -150 0
-183 178 0
-183 150 0
-183 149 -152 0
-183 -149 152 0
183 -178 149 152 -150 0
183 -178 -149 -152 -150 0
184 181 -147 0
184 -181 147 0
-184 181 147 0
-184 -181 -147 0
185 150 -148 0
185 -150 148 0
-185 150 148 0
-185 -150 -148 0
-186 181 0
-186 148 0
-186 147 -150 0
-186 -147 150 0
186 -181 147 150 -148 0
186 -181 -147 -150 -148 0
187 184 -145 0
187 -184 145 0
-187 184 145 0
-187 -184 -145 0
188 148 -146 0
188 -148 146 0
-188 148 146 0
-188 -148 -146 0
-189 184 0
-189 146 0
-189 145 -148 0
-189 -145 148 0
189 -184 145 148 -146 0
189 -184 -145 -148 -146 0
190 187 -143 0
190 -187 143 0
-190 187 143 0
-190 -187 -143 0
191 146 -144 0
191 -146 144 0
-191 146 144 0
-191 -146 -144 0
-192 187 0
-192 144 0
-192 143 -146 0
-192 -143 146 0
192 -187 143 146 -144 0
192 -187 -143 -146 -144 0
193 190 -141 0
193 -190 141 0
-193 190 141 0
-193 -190 -141 0
194 144 -142 0
194 -144 142 0
-194 144 142 0
-194 -144 -142 0
-195 190 0
-195 142 0
-195 141 -144 0
-195 -141 144 0
195 -190 141 144 -142 0
195 -190 -141 -144 -142 0
196 193 -139 0
196 -193 139 0
-196 193 139 0
-196 -193 -139 0
197 142 -140 0
197 -142 140 0
-197 142 140 0
-197 -142 -140 0
-198 193 0
-198 140 0
-198 139 -142 0
-198 -139 142 0
198 -193 139 142 -140 0
198 -193 -139 -142 -140 0
199 196 -137 0
199 -196 137 0
-199 196 137 0
-199 -196 -137 0
200 140 -138 0
200 -140 138 0
-200 140 138 0
-200 -140 -138 0
-201 196 0
-201 138 0
-201 137 -140 0
-201 -137 140 0
201 -196 137 140 -138 0
201 -196 -137 -140 -138 0
202 199 -135 0
202 -199 135 0
-202 199 135 0
-202 -199 -135 0
203 138 -136 0
203 -138 136 0
-203 138 136 0
-203 -138 -136 0
-204 199 0
-204 136 0
-204 135 -138 0
-204 -135 138 0
204 -199 135 138 -136 0
204 -199 -135 -138 -136 0
205 202 -133 0
205 -202 133 0
-205 202 133 0
-205 -202 -133 0
206 136 -134 0
206 -136 134 0
-206 136 134 0
-206 -136 -134 0
-207 202 0
-207 134 0
-207 133 -136 0
-207 -133 136 0
207 -202 133 136 -134 0
207 -202 -133 -136 -134 0
208 205 -131 0
208 -205 131 0
-208 205 131 0
-208 -205 -131 0
209 134 -132 0
209 -134 132 0
-209 134 132 0
-209 -134 -132 0
-210 205 0
-210 132 0
-210 131 -134 0
-210 -131 134 0
210 -205 131 134 -132 0
210 -205 -131 -134 -132 0
211 208 -129 0
211 -208 129 0
-211 208 129 0
-211 -208 -129 0
212 132 -130 0
212 -132 130 0
-212 132 130 0
-212 -132 -130 0
-213 208 0
-213 130 0
-213 129 -132 0
-213 -129 132 0
213 -208 129 132 -130 0
213 -208 -129 -132 -130 0
214 211 -127 0
214 -211 127 0
-214 211 127 0
-214 -211 -127 0
215 130 -128 0
215 -130 128 0
-215 130 128 0
-215 -130 -128 0
-216 211 0
-216 128 0
-216 127 -130 0
-216 -127 130 0
216 -211 127 130 -128 0
216 -211 -127 -130 -128 0
217 214 -125 0
217 -214 125 0
-217 214 125 0
-217 -214 -125 0
218 128 -126 0
218 -128 126 0
-218 128 126 0
-218 -128 -126 0
-219 214 0
-219 126 0
-219 125 -128 0
-219 -125 128 0
219 -214 125 128 -126 0
219 -214 -125 -128 -126 0
220 217 -123 0
220 -217 123 0
-220 217 123 0
-220 -217 -123 0
221 126 -124 0
221 -126 124 0
-221 126 124 0
-221 -126 -124 0
-222 217 0
-222 124 0
-222 123 -126 0
-222 -123 126 0
222 -217 123 126 -124 0
222 -217 -123 -126 -124 0
223 220 -121 0
223 -220 121 0
-223 220 121 0
-223 -220 -121 0
224 124 -122 0
224 -124 122 0
-224 124 122 0
-224 -124 -122 0
-225 220 0
-225 122 0
-225 121 -124 0
-225 -121 124 0
225 -220 121 124 -122 0
225 -220 -121 -124 -122 0
226 223 -119 0
226 -223 119 0
-226 223 119 0
-226 -223 -119 0
227 122 -120 0
227 -122 120 0
-227 122 120 0
-227 -122 -120 0
-228 223 0
-228 120 0
-228 119 -122 0
-228 -119 122 0
228 -223 119 122 -120 0
228 -223 -119 -122 -120 0
229 226 -117 0
229 -226 117 0
-229 226 117 0
-229 -226 -117 0
230 120 -118 0
230 -120 118 0
-230 120 118 0
-230 -120 -118 0
-231 226 0
-231 118 0
-231 117 -120 0
-231 -117 120 0
231 -226 117 120 -118 0
231 -226 -117 -120 -118 0
232 229 -115 0
232 -229 115 0
-232 229 115 0
-232 -229 -115 0
233 118 -116 0
233 -118 116 0
-233 118 116 0
-233 -118 -116 0
-234 229 0
-234 116 0
-234 115 -118 0
-234 -115 118 0
234 -229 115 118 -116 0
234 -229 -115 -118 -116 0
235 232 -113 0
235 -232 113 0
-235 232 113 0
-235 -232 -113 0
236 116 -114 0
236 -116 114 0
-236 116 114 0
-236 -116 -114 0
-237 232 0
-237 114 0
-237 113 -116 0
-237 -113 116 0
237 -232 113 116 -114 0
237 -232 -113 -116 -114 0
238 235 -111 0
238 -235 111 0
-238 235 111 0
-238 -235 -111 0
239 114 -112 0
239 -114 112 0
-239 114 112 0
-239 -114 -112 0
-240 235 0
-240 112 0
-240 111 -114 0
-240 -111 114 0
240 -235 111 114 -112 0
240 -235 -111 -114 -112 0
241 238 -109 0
241 -238 109 0
-241 238 109 0
-241 -238 -109 0
242 112 -110 0
242 -112 110 0
-242 112 110 0
-242 -112 -110 0
-243 238 0
-243 110 0
-243 109 -112 0
-243 -109 112 0
243 -238 109 112 -110 0
243 -238 -109 -112 -110 0
244 241 -107 0
244 -241 107 0
-244 241 107 0
-244 -241 -107 0
245 110 -108 0
245 -110 108 0
-245 110 108 0
-245 -110 -108 0
-246 241 0
-246 108 0
-246 107 -110 0
-246 -107 110 0
246 -241 107 110 -108 0
246 -241 -107 -110 -108 0
247 244 -105 0
247 -244 105 0
-247 244 105 0
-247 -244 -105 0
248 108 -106 0
248 -108 106 0
-248 108 106 0
-248 -108 -106 0
-249 244 0
-249 106 0
-249 105 -108 0
-249 -105 108 0
249 -244 105 108 -106 0
249 -244 -105 -108 -106 0
250 247 -103 0
250 -247 103 0
-250 247 103 0
-250 -247 -103 0
251 106 -104 0
251 -106 104 0
-251 106 104 0
-251 -106 -104 0
-252 247 0
-252 104 0
-252 103 -106 0
-252 -103 106 0
252 -247 103 106 -104 0
252 -247 -103 -106 -104 0
253 250 -101 0
253 -250 101 0
-253 250 101 0
-253 -250 -101 0
254 104 -102 0
254 -104 102 0
-254 104 102 0
-254 -104 -102 0
-255 250 0
-255 102 0
-255 101 -104 0
-255 -101 104 0
255 -250 101 104 -102 0
255 -250 -101 -104 -102 0
256 253 -99 0
256 -253 99 0
-256 253 99 0
-256 -253 -99 0
257 102 -100 0
257 -102 100 0
-257 102 100 0
-257 -102 -100 0
-258 253 0
-258 100 0
-258 99 -102 0
-258 -99 102 0
258 -253 99 102 -100 0
258 -253 -99 -102 -100 0
259 256 -97 0
259 -256 97 0
-259 256 97 0
-259 -256 -97 0
260 100 -98 0
260 -100 98 0
-260 100 98 0
-260 -100 -98 0
-261 256 0
-261 98 0
-261 97 -100 0
-261 -97 100 0
261 -256 97 100 -98 0
261 -256 -97 -100 -98 0
262 259 -95 0
262 -259 95 0
-262 259 95 0
-262 -259 -95 0
263 98 -96 0
263 -98 96 0
-263 98 96 0
-263 -98 -96 0
-264 259 0
-264 96 0
-264 95 -98 0
-264 -95 98 0
264 -259 95 98 -96 0
264 -259 -95 -98 -96 0
265 262 -93 0
265 -262 93 0
-265 262 93 0
-265 -262 -93 0
266 96 -94 0
266 -96 94 0
-266 96 94 0
-266 -96 -94 0
-267 262 0
-267 94 0
-267 93 -96 0
-267 -93 96 0
267 -262 93 96 -94 0
267 -262 -93 -96 -94 0
268 265 -91 0
268 -265 91 0
-268 265 91 0
-268 -265 -91 0
269 94 -92 0
269 -94 92 0
-269 94 92 0
-269 -94 -92 0
-270 265 0
-270 92 0
-270 91 -94 0
-270 -91 94 0
270 -265 91 94 -92 0
270 -265 -91 -94 -92 0
271 268 -89 0
271 -268 89 0
-271 268 89 0
-271 -268 -89 0
272 92 -90 0
272 -92 90 0
-272 92 90 0
-272 -92 -90 0
-273 268 0
-273 90 0
-273 89 -92 0
-273 -89 92 0
273 -268 89 92 -90 0
273 -268 -89 -92 -90 0
274 271 -87 0
274 -271 87 0
-274 271 87 0
-274 -271 -87 0
275 90 -88 0
275 -90 88 0
-275 90 88 0
-275 -90 -88 0
-276 271 0
-276 88 0
-276 87 -90 0
-276 -87 90 0
276 -271 87 90 -88 0
276 -271 -87 -90 -88 0
277 274 -85 0
277 -274 85 0
-277 274 85 0
-277 -274 -85 0
278 88 -86 0
278 -88 86 0
-278 88 86 0
-278 -88 -86 0
-279 274 0
-279 86 0
-279 85 -88 0
-279 -85 88 0
279 -274 85 88 -86 0
279 -274 -85 -88 -86 0
280 277 -83 0
280 -277 83 0
-280 277 83 0
-280 -277 -83 0
281 86 -84 0
281 -86 84 0
-281 86 84 0
-281 -86 -84 0
-282 277 0
-282 84 0
-282 83 -86 0
-282 -83 86 0
282 -277 83 86 -84 0
282 -277 -83 -86 -84 0
283 280 -81 0
283 -280 81 0
-283 280 81 0
-283 -280 -81 0
284 84 -82 0
284 -84 82 0
-284 84 82 0
-284 -84 -82 0
-285 280 0
-285 82 0
-285 81 -84 0
-285 -81 84 0
285 -280 81 84 -82 0
285 -280 -81 -84 -82 0
286 283 -79 0
286 -283 79 0
-286 283 79 0
-286 -283 -79 0
287 82 -80 0
287 -82 80 0
-287 82 80 0
-287 -82 -80 0
-288 283 0
-288 80 0
-288 79 -82 0
-288 -79 82 0
288 -283 79 82 -80 0
288 -283 -79 -82 -80 0
289 286 -77 0
289 -286 77 0
-289 286 77 0
-289 -286 -77 0
290 80 -78 0
290 -80 78 0
-290 80 78 0
-290 -80 -78 0
-291 286 0
-291 78 0
-291 77 -80 0
-291 -77 80 0
291 -286 77 80 -78 0
291 -286 -77 -80 -78 0
292 289 -75 0
292 -289 75 0
-292 289 75 0
-292 -289 -75 0
293 78 -76 0
293 -78 76 0
-293 78 76 0
-293 -78 -76 0
-294 289 0
-294 76 0
-294 75 -78 0
-294 -75 78 0
294 -289 75 78 -76 0
294 -289 -75 -78 -76 0
295 292 -73 0
295 -292 73 0
-295 292 73 0
-295 -292 -73 0
296 76 -74 0
296 -76 74 0
-296 76 74 0
-296 -76 -74 0
-297 292 0
-297 74 0
-297 73 -76 0
-297 -73 76 0
297 -292 73 76 -74 0
297 -292 -73 -76 -74 0
298 295 -71 0
298 -295 71 0
-298 295 71 0
-298 -295 -71 0
299 74 -72 0
299 -74 72 0
-299 74 72 0
-299 -74 -72 0
-300 295 0
-300 72 0
-300 71 -74 0
-300 -71 74 0
300 -295 71 74 -72 0
300 -295 -71 -74 -72 0
301 298 -69 0
301 -298 69 0
-301 298 69 0
-301 -298 -69 0
302 72 -70 0
302 -72 70 0
-302 72 70 0
-302 -72 -70 0
-303 298 0
-303 70 0
-303 69 -72 0
-303 -69 72 0
303 -298 69 72 -70 0
303 -298 -69 -72 -70 0
304 301 -67 0
304 -301 67 0
-304 301 67 0
-304 -301 -67 0
305 70 -68 0
305 -70 68 0
-305 70 68 0
-305 -70 -68 0
-306 301 0
-306 68 0
-306 67 -70 0
-306 -67 70 0
306 -301 67 70 -68 0
306 -301 -67 -70 -68 0
307 304 -65 0
307 -304 65 0
-307 304 65 0
-307 -304 -65 0
308 68 -66 0
308 -68 66 0
-308 68 66 0
-308 -68 -66 0
-309 304 0
-309 66 0
-309 65 -68 0
-309 -65 68 0
309 -304 65 68 -66 0
309 -304 -65 -68 -66 0
310 307 -63 0
310 -307 63 0
-310 307 63 0
-310 -307 -63 0
311 66 -64 0
311 -66 64 0
-311 66 64 0
-311 -66 -64 0
-312 307 0
-312 64 0
-312 63 -66 0
-312 -63 66 0
312 -307 63 66 -64 0
312 -307 -63 -66 -64 0
313 310 -61 0
313 -310 61 0
-313 310 61 0
-313 -310 -61 0
314 64 -62 0
314 -64 62 0
-314 64 62 0
-314 -64 -62 0
-315 310 0
-315 62 0
-315 61 -64 0
-315 -61 64 0
315 -310 61 64 -62 0
315 -310 -61 -64 -62 0
316 313 -59 0
316 -313 59 0
-316 313 59 0
-316 -313 -59 0
317 62 -60 0
317 -62 60 0
-317 62 60 0
-317 -62 -60 0
-318 313 0
-318 60 0
-318 59 -62 0
-318 -59 62 0
318 -313 59 62 -60 0
318 -313 -59 -62 -60 0
319 316 -57 0
319 -316 57 0
-319 316 57 0
-319 -316 -57 0
320 60 -58 0
320 -60 58 0
-320 60 58 0
-320 -60 -58 0
-321 316 0
-321 58 0
-321 57 -60 0
-321 -57 60 0
321 -316 57 60 -58 0
321 -316 -57 -60 -58 0
322 319 -55 0
322 -319 55 0
-322 319 55 0
-322 -319 -55 0
323 58 -56 0
323 -58 56 0
-323 58 56 0
-323 -58 -56 0
-324 319 0
-324 56 0
-324 55 -58 0
-324 -55 58 0
324 -319 55 58 -56 0
324 -319 -55 -58 -56 0
325 322 -53 0
325 -322 53 0
-325 322 53 0
-325 -322 -53 0
326 56 -54 0
326 -56 54 0
-326 56 54 0
-326 -56 -54 0
-327 322 0
-327 54 0
-327 53 -56 0
-327 -53 56 0
327 -322 53 56 -54 0
327 -322 -53 -56 -54 0
328 325 -51 0
328 -325 51 0
-328 325 51 0
-328 -325 -51 0
329 54 -52 0
329 -54 52 0
-329 54 52 0
-329 -54 -52 0
-330 325 0
-330 52 0
-330 51 -54 0
-330 -51 54 0
330 -325 51 54 -52 0
330 -325 -51 -54 -52 0
331 328 -49 0
331 -328 49 0
-331 328 49 0
-331 -328 -49 0
332 52 -50 0
332 -52 50 0
-332 52 50 0
-332 -52 -50 0
-333 328 0
-333 50 0
-333 49 -52 0
-333 -49 52 0
333 -328 49 52 -50 0
333 -328 -49 -52 -50 0
334 331 -47 0
334 -331 47 0
-334 331 47 0
-334 -331 -47 0
335 50 -48 0
335 -50 48 0
-335 50 48 0
-335 -50 -48 0
-336 331 0
-336 48 0
-336 47 -50 0
-336 -47 50 0
336 -331 47 50 -48 0
336 -331 -47 -50 -48 0
337 334 -45 0
337 -334 45 0
-337 334 45 0
-337 -334 -45 0
338 48 -46 0
338 -48 46 0
-338 48 46 0
-338 -48 -46 0
-339 334 0
-339 46 0
-339 45 -48 0
-339 -45 48 0
339 -334 45 48 -46 0
339 -334 -45 -48 -46 0
340 337 -43 0
340 -337 43 0
-340 337 43 0
-340 -337 -43 0
341 46 -44 0
341 -46 44 0
-341 46 44 0
-341 -46 -44 0
-342 337 0
-342 44 0
-342 43 -46 0
-342 -43 46 0
342 -337 43 46 -44 0
342 -337 -43 -46 -44 0
343 340 -41 0
343 -340 41 0
-343 340 41 0
-343 -340 -41 0
344 44 -42 0
344 -44 42 0
-344 44 42 0
-344 -44 -42 0
-345 340 0
-345 42 0
-345 41 -44 0
-345 -41 44 0
345 -340 41 44 -42 0
345 -340 -41 -44 -42 0
346 343 -39 0
346 -343 39 0
-346 343 39 0
-346 -343 -39 0
347 42 -40 0
347 -42 40 0
-347 42 40 0
-347 -42 -40 0
-348 343 0
-348 40 0
-348 39 -42 0
-348 -39 42 0
348 -343 39 42 -40 0
348 -343 -39 -42 -40 0
349 346 -37 0
349 -346 37 0
-349 346 37 0
-349 -346 -37 0
350 40 -38 0
350 -40 38 0
-350 40 38 0
-350 -40 -38 0
-351 346 0
-351 38 0
-351 37 -40 0
-351 -37 40 0
351 -346 37 40 -38 0
351 -346 -37 -40 -38 0
352 349 -35 0
352 -349 35 0
-352 349 35 0
-352 -349 -35 0
353 38 -36 0
353 -38 36 0
-353 38 36 0
-353 -38 -36 0
-354 349 0
-354 36 0
-354 35 -38 0
-354 -35 38 0
354 -349 35 38 -36 0
354 -349 -35 -38 -36 0
355 352 -33 0
355 -352 33 0
-355 352 33 0
-355 -352 -33 0
356 36 -34 0
356 -36 34 0
-356 36 34 0
-356 -36 -34 0
-357 352 0
-357 34 0
-357 33 -36 0
-357 -33 36 0
357 -352 33 36 -34 0
357 -352 -33 -36 -34 0
358 355 -31 0
358 -355 31 0
-358 355 31 0
-358 -355 -31 0
359 34 -32 0
359 -34 32 0
-359 34 32 0
-359 -34 -32 0
-360 355 0
-360 32 0
-360 31 -34 0
-360 -31 34 0
360 -355 31 34 -32 0
360 -355 -31 -34 -32 0
361 358 -29 0
361 -358 29 0
-361 358 29 0
-361 -358 -29 0
362 32 -30 0
362 -32 30 0
-362 32 30 0
-362 -32 -30 0
-363 358 0
-363 30 0
-363 29 -32 0
-363 -29 32 0
363 -358 29 32 -30 0
363 -358 -29 -32 -30 0
364 361 -27 0
364 -361 27 0
-364 361 27 0
-364 -361 -27 0
365 30 -28 0
365 -30 28 0
-365 30 28 0
-365 -30 -28 0
-366 361 0
-366 28 0
-366 27 -30 0
-366 -27 30 0
366 -361 27 30 -28 0
366 -361 -27 -30 -28 0
367 364 -25 0
367 -364 25 0
-367 364 25 0
-367 -364 -25 0
368 28 -26 0
368 -28 26 0
-368 28 26 0
-368 -28 -26 0
-369 364 0
-369 26 0
-369 25 -28 0
-369 -25 28 0
369 -364 25 28 -26 0
369 -364 -25 -28 -26 0
370 367 -23 0
370 -367 23 0
-370 367 23 0
-370 -367 -23 0
371 26 -24 0
371 -26 24 0
-371 26 24 0
-371 -26 -24 0
-372 367 0
-372 24 0
-372 23 -26 0
-372 -23 26 0
372 -367 23 26 -24 0
372 -367 -23 -26 -24 0
373 370 -21 0
373 -370 21 0
-373 370 21 0
-373 -370 -21 0
374 24 -22 0
374 -24 22 0
-374 24 22 0
-374 -24 -22 0
-375 370 0
-375 22 0
-375 21 -24 0
-375 -21 24 0
375 -370 21 24 -22 0
375 -370 -21 -24 -22 0
376 373 -19 0
376 -373 19 0
-376 373 19 0
-376 -373 -19 0
377 22 -20 0
377 -22 20 0
-377 22 20 0
-377 -22 -20 0
-378 373 0
-378 20 0
-378 19 -22 0
-378 -19 22 0
378 -373 19 22 -20 0
378 -373 -19 -22 -20 0
379 376 -17 0
379 -376 17 0
-379 376 17 0
-379 -376 -17 0
380 20 -18 0
380 -20 18 0
-380 20 18 0
-380 -20 -18 0
-381 376 0
-381 18 0
-381 17 -20 0
-381 -17 20 0
381 -376 17 20 -18 0
381 -376 -17 -20 -18 0
382 379 -15 0
382 -379 15 0
-382 379 15 0
-382 -379 -15 0
383 18 -16 0
383 -18 16 0
-383 18 16 0
-383 -18 -16 0
-384 379 0
-384 16 0
-384 15 -18 0
-384 -15 18 0
384 -379 15 18 -16 0
384 -379 -15 -18 -16 0
385 382 -13 0
385 -382 13 0
-385 382 13 0
-385 -382 -13 0
386 16 -14 0
386 -16 14 0
-386 16 14 0
-386 -16 -14 0
-387 382 0
-387 14 0
-387 13 -16 0
-387 -13 16 0
387 -382 13 16 -14 0
387 -382 -13 -16 -14 0
388 385 -11 0
388 -385 11 0
-388 385 11 0
-388 -385 -11 0
389 14 -12 0
389 -14 12 0
-389 14 12 0
-389 -14 -12 0
-390 385 0
-390 12 0
-390 11 -14 0
-390 -11 14 0
390 -385 11 14 -12 0
390 -385 -11 -14 -12 0
391 388 -9 0
391 -388 9 0
-391 388 9 0
-391 -388 -9 0
392 12 -10 0
392 -12 10 0
-392 12 10 0
-392 -12 -10 0
-393 388 0
-393 10 0
-393 9 -12 0
-393 -9 12 0
393 -388 9 12 -10 0
393 -388 -9 -12 -10 0
394 391 -7 0
394 -391 7 0
-394 391 7 0
-394 -391 -7 0
395 10 -8 0
395 -10 8 0
-395 10 8 0
-395 -10 -8 0
-396 391 0
-396 8 0
-396 7 -10 0
-396 -7 10 0
396 -391 7 10 -8 0
396 -391 -7 -10 -8 0
397 394 -5 0
397 -394 5 0
-397 394 5 0
-397 -394 -5 0
398 8 -6 0
398 -8 6 0
-398 8 6 0
-398 -8 -6 0
-399 394 0
-399 6 0
-399 5 -8 0
-399 -5 8 0
399 -394 5 8 -6 0
399 -394 -5 -8 -6 0
400 397 -3 0
400 -397 3 0
-400 397 3 0
-400 -397 -3 0
401 6 -4 0
401 -6 4 0
-401 6 4 0
-401 -6 -4 0
-402 397 0
-402 4 0
-402 3 -6 0
-402 -3 6 0
402 -397 3 6 -4 0
402 -397 -3 -6 -4 0
403 400 -1 0
403 -400 1 0
-403 400 1 0
-403 -400 -1 0
404 4 -2 0
404 -4 2 0
-404 4 2 0
-404 -4 -2 0
-405 400 0
-405 2 0
-405 1 -4 0
-405 -1 4 0
405 -400 1 4 -2 0
405 -400 -1 -4 -2 0
-403 0
-400 0
-404 0
-397 0
-401 0
-394 0
-398 0
-391 0
-395 0
-388 0
-392 0
-385 0
-389 0
-382 0
-386 0
-379 0
-383 0
-376 0
-380 0
-373 0
-377 0
-370 0
-374 0
-367 0
-371 0
-364 0
-368 0
-361 0
-365 0
-358 0
-362 0
-355 0
-359 0
-352 0
-356 0
-349 0
-353 0
-346 0
-350 0
-343 0
-347 0
-340 0
-344 0
-337 0
-341 0
-334 0
-338 0
-331 0
-335 0
-328 0
-332 0
-325 0
-329 0
-322 0
-326 0
-319 0
-323 0
-316 0
-320 0
-313 0
-317 0
-310 0
-314 0
-307 0
-311 0
-304 0
-308 0
-301 0
-305 0
-298 0
-302 0
-295 0
-299 0
-292 0
-296 0
-289 0
-293 0
-286 0
-290 0
-283 0
-287 0
-280 0
-284 0
-277 0
-281 0
-274 0
-278 0
-271 0
-275 0
-268 0
-272 0
-265 0
-269 0
-262 0
-266 0
-259 0
-263 0
-256 0
-260 0
-253 0
-257 0
-250 0
-254 0
-247 0
-251 0
-244 0
-248 0
-241 0
-245 0
-238 0
-242 0
-235 0
-239 0
-232 0
-236 0
-229 0
-233 0
-226 0
-230 0
-223 0
-227 0
-220 0
-224 0
-217 0
-221 0
-214 0
-218 0
-211 0
-215 0
-208 0
-212 0
-205 0
-209 0
-202 0
-206 0
-199 0
-203 0
-196 0
-200 0
-193 0
-197 0
-190 0
-194 0
-187 0
-191 0
-184 0
-188 0
-181 0
-185 0
-178 0
-182 0
-175 0
-179 0
-172 0
-176 0
-169 0
-173 0
-163 0
-170 0
